# B2PLYP/def2tzvpp nosym scf(tight) force Pop=NPA

xPert

0 1
H 0.000000 0.758568 -0.469403
H 0.000000 -0.758568 -0.469403
O 0.300000 0.000000 0.117351

