! ======================================================
!  Input file for FireFly
! ======================================================
 $CONTRL SCFTYP=RHF $END
 $CONTRL ICHARG=0 MULT=1 $END
 $BASIS GBASIS=PM3 $END
 $DATA
Molecule specification
C1
O 8.000000 -0.000261 -0.462073 0.000000
H 1.000000 0.908963 0.257445 0.000000
H 1.000000 -0.850470 0.359049 0.000000
O 8.000000 0.225529 0.688644 0.000000
H 1.000000 0.943552 0.814703 0.000000
H 1.000000 -0.588907 1.032400 0.000000
 $END
