! ======================================================
!  Input file for FireFly
! ======================================================
 $CONTRL SCFTYP=RHF $END
 $CONTRL ICHARG=0 MULT=1 $END
 $BASIS GBASIS=PM3 $END
 $DATA
Molecule specification
C1
O 8.000000 -0.000000 -0.388000 0.000000
H 1.000000 0.751000 0.194000 0.000000
H 1.000000 -0.751000 0.194000 0.000000
O 8.000000 0.223175 0.596802 0.000000
H 1.000000 0.974174 1.178802 0.000000
H 1.000000 -0.527825 1.178802 0.000000
 $END
