# B2PLYP/def2tzvpp nosym scf(tight) Freq
# iop(7/33=1)

xPert

0 1
H 0.000000 0.758568 -0.469403
H 0.000000 -0.758568 -0.469403
O 0.000000 0.000000 0.117351

