#B3LYP/6-31+G Freq

xPert

0 1
O 0.000000 0.000000 0.111212
H 0.000000 0.800638 -0.444849
H 0.000000 -0.800638 -0.344849

